n = 6;
m = 9;
s = [20, 11, 18, 16, 11, 18, 4, 6, 6];
a = [| 0, 1, 1, 2, 2, 3
     | 1, 1, 2, 2, 4, 3
     | 1, 5, 5, 4, 4, 3
     | 6, 6, 5, 7, 4, 3
     | 6, 6, 6, 8, 8, 8
     | 0, 0, 9, 0, 9, 9 |];
